c Standarized MaxSat Instance
c{
c "sha1sum": "f645f6e381c048a2d52b30edaaff589d70564193",
c "nvars": 120,
c "ncls": 255,
c "total_lits": 485,
c "nhards": 200,
c "nhard_nlits": 430,
c "nhard_len_stats":
c    { "min": 2,
c      "max": 5,
c      "ave": 2.1500,
c      "stddev": 0.6538 },
c "nsofts": 55,
c "nsoft_nlits": 55,
c "nsoft_len_stats":
c    { "min": 1,
c      "max": 1,
c      "ave": 1.0000,
c      "stddev": 0.0000 },
c "nsoft_wts": 39,
c "soft_wt_stats":
c    { "min": 1,
c      "max": 97,
c      "ave": 51.1455,
c      "stddev": 27.9138 }
c}
c------------------------------------------------------------
c Original instance: warehouses_wcnf.s-suppc/warehouse0.wcsp
c Format: Partial Max-SAT (wcnf)
c Encoding: [SEQUENTIAL] + Support (less SUM 2^#literals direction)
h 1 2 3 4 5 0
h 6 7 8 9 10 0
h 11 12 13 14 15 0
h 16 17 18 19 20 0
h 21 22 23 24 25 0
h 26 27 28 29 30 0
h 31 32 33 34 35 0
h 36 37 38 39 40 0
h 41 42 43 44 45 0
h 46 47 48 49 50 0
h 51 52 0
h 53 54 0
h 55 56 0
h 57 58 0
h 59 60 0
h -1 -62 0
h -2 62 0
h -2 -63 0
h -3 63 0
h -3 -64 0
h -4 64 0
h -4 -65 0
h -5 65 0
h -6 -67 0
h -7 67 0
h -7 -68 0
h -8 68 0
h -8 -69 0
h -9 69 0
h -9 -70 0
h -10 70 0
h -11 -72 0
h -12 72 0
h -12 -73 0
h -13 73 0
h -13 -74 0
h -14 74 0
h -14 -75 0
h -15 75 0
h -16 -77 0
h -17 77 0
h -17 -78 0
h -18 78 0
h -18 -79 0
h -19 79 0
h -19 -80 0
h -20 80 0
h -21 -82 0
h -22 82 0
h -22 -83 0
h -23 83 0
h -23 -84 0
h -24 84 0
h -24 -85 0
h -25 85 0
h -26 -87 0
h -27 87 0
h -27 -88 0
h -28 88 0
h -28 -89 0
h -29 89 0
h -29 -90 0
h -30 90 0
h -31 -92 0
h -32 92 0
h -32 -93 0
h -33 93 0
h -33 -94 0
h -34 94 0
h -34 -95 0
h -35 95 0
h -36 -97 0
h -37 97 0
h -37 -98 0
h -38 98 0
h -38 -99 0
h -39 99 0
h -39 -100 0
h -40 100 0
h -41 -102 0
h -42 102 0
h -42 -103 0
h -43 103 0
h -43 -104 0
h -44 104 0
h -44 -105 0
h -45 105 0
h -46 -107 0
h -47 107 0
h -47 -108 0
h -48 108 0
h -48 -109 0
h -49 109 0
h -49 -110 0
h -50 110 0
h -51 -112 0
h -52 112 0
h -53 -114 0
h -54 114 0
h -55 -116 0
h -56 116 0
h -57 -118 0
h -58 118 0
h -59 -120 0
h -60 120 0
h -62 61 0
h -63 62 0
h -64 63 0
h -65 64 0
h -67 66 0
h -68 67 0
h -69 68 0
h -70 69 0
h -72 71 0
h -73 72 0
h -74 73 0
h -75 74 0
h -77 76 0
h -78 77 0
h -79 78 0
h -80 79 0
h -82 81 0
h -83 82 0
h -84 83 0
h -85 84 0
h -87 86 0
h -88 87 0
h -89 88 0
h -90 89 0
h -92 91 0
h -93 92 0
h -94 93 0
h -95 94 0
h -97 96 0
h -98 97 0
h -99 98 0
h -100 99 0
h -102 101 0
h -103 102 0
h -104 103 0
h -105 104 0
h -107 106 0
h -108 107 0
h -109 108 0
h -110 109 0
h -112 111 0
h -114 113 0
h -116 115 0
h -118 117 0
h -120 119 0
30 -52 0
h -1 52 0
h -6 52 0
h -11 52 0
h -16 52 0
h -21 52 0
h -26 52 0
h -31 52 0
h -36 52 0
h -41 52 0
h -46 52 0
30 -54 0
h -2 54 0
h -7 54 0
h -12 54 0
h -17 54 0
h -22 54 0
h -27 54 0
h -32 54 0
h -37 54 0
h -42 54 0
h -47 54 0
30 -56 0
h -3 56 0
h -8 56 0
h -13 56 0
h -18 56 0
h -23 56 0
h -28 56 0
h -33 56 0
h -38 56 0
h -43 56 0
h -48 56 0
30 -58 0
h -4 58 0
h -9 58 0
h -14 58 0
h -19 58 0
h -24 58 0
h -29 58 0
h -34 58 0
h -39 58 0
h -44 58 0
h -49 58 0
30 -60 0
h -5 60 0
h -10 60 0
h -15 60 0
h -20 60 0
h -25 60 0
h -30 60 0
h -35 60 0
h -40 60 0
h -45 60 0
h -50 60 0
20 -1 0
24 -2 0
11 -3 0
25 -4 0
30 -5 0
28 -6 0
27 -7 0
82 -8 0
83 -9 0
74 -10 0
74 -11 0
97 -12 0
71 -13 0
96 -14 0
70 -15 0
2 -16 0
55 -17 0
73 -18 0
69 -19 0
61 -20 0
46 -21 0
96 -22 0
59 -23 0
83 -24 0
4 -25 0
42 -26 0
22 -27 0
29 -28 0
67 -29 0
59 -30 0
1 -31 0
5 -32 0
73 -33 0
59 -34 0
56 -35 0
10 -36 0
73 -37 0
13 -38 0
43 -39 0
96 -40 0
93 -41 0
35 -42 0
63 -43 0
85 -44 0
46 -45 0
47 -46 0
65 -47 0
55 -48 0
71 -49 0
95 -50 0
